NB_POSTES = 6;

NIVEAU_HIERARCHIQUE_P = [|1, 
|2, 
|2, 
|1, 
|1, 
|2|];

COMP_CLEES_P = [|1, 1, 1, 1, 0, 0, 1, 0, 0, 1, 
|1, 1, 1, 1, 1, 1, 1, 1, 1, 0, 
|1, 1, 0, 0, 1, 0, 0, 1, 0, 1, 
|0, 1, 1, 1, 1, 1, 0, 0, 1, 1, 
|0, 1, 0, 0, 1, 1, 0, 1, 0, 1, 
|1, 1, 0, 0, 1, 0, 1, 1, 1, 0|];

AUTRES_COMP_P = [|1, 0, 0, 1, 1, 0, 0, 0, 0, 0, 
|0, 0, 1, 1, 0, 1, 0, 0, 1, 0, 
|0, 0, 0, 0, 0, 0, 0, 0, 0, 0, 
|0, 0, 1, 1, 1, 0, 1, 1, 1, 0, 
|0, 1, 0, 0, 1, 0, 0, 0, 0, 0, 
|0, 0, 1, 0, 0, 0, 0, 0, 1, 1|];

NIVEAU_EDUCATION_P = [|7, 
|5, 
|6, 
|6, 
|1, 
|1|];

TITRE_PROFESSIONNEL_P = [|1, 
|1, 
|6, 
|3, 
|3, 
|0|];

NIVEAU_FR_P = [|4, 
|3, 
|4, 
|3, 
|3, 
|3|];

NIVEAU_EN_P = [|3, 
|3, 
|3, 
|3, 
|1, 
|4|];

AUTRES_LANGUES_P = [|0, 0, 0, 0, 0, 0, 0, 0, 0, 0, 
|0, 0, 0, 0, 0, 0, 0, 0, 0, 0, 
|0, 0, 0, 0, 0, 0, 0, 1, 0, 0, 
|0, 0, 1, 0, 0, 0, 0, 0, 0, 0, 
|0, 0, 0, 0, 0, 0, 0, 0, 0, 1, 
|0, 0, 0, 0, 0, 0, 0, 0, 0, 0|];